NAME : weird20
COMMENT : Algorithm Greedy(+2opt)
COMMENT : Length 449 
COMMENT : Elapsed time 0.000014 seconds
COMMENT : 2-opt iterations 15
TYPE : TOUR
DIMENSION : 20
TOUR_SECTION
1
14
8
20
12
2
18
4
9
15
7
19
11
6
13
17
3
5
10
16
1
EOF
